db/data/10062308797936208152259717145861811189.z3.out
sat
-------------------
329.389404664
